Minimize
	value: tt

Subject to
tt + 2000 s_1_1 > 0
tt - t_1_1 - 2000.000000 s_1_1 > -1974.869800
tt + 2000 s_2_1 > 0
tt - t_2_1 - 2000.000000 s_2_1 > -1984.896200
tt + 2000 s_1_2 > 0
tt - t_1_2 - 2000.000000 s_1_2 > -1996.805900
tt + 2000 s_2_2 > 0
tt - t_2_2 - 2000.000000 s_2_2 > -1997.888300
tt + 2000 s_1_3 > 0
tt - t_1_3 - 2000.000000 s_1_3 > -1996.268500
tt + 2000 s_2_3 > 0
tt - t_2_3 - 2000.000000 s_2_3 > -1996.706400
tt + 2000 s_1_4 > 0
tt - t_1_4 - 2000.000000 s_1_4 > -1986.047300
tt + 2000 s_2_4 > 0
tt - t_2_4 - 2000.000000 s_2_4 > -1991.417600
tt + 2000 s_1_5 > 0
tt - t_1_5 - 2021.455277 s_1_5 + 21.455277 s_1_4 > -1999.854800
tt + 2000 s_2_5 > 0
tt - t_2_5 - 2042.910554 s_2_5 + 42.910554 s_2_4 > -1998.742700
s_1_1 + s_2_1  = 1
s_1_2 + s_2_2  = 1
s_1_3 + s_2_3  = 1
s_1_4 + s_2_4  = 1
s_1_5 + s_2_5  = 1
t_1_1 - t_1_2 + 2000.000000 u_1_1_2 > 3.194100
t_1_2 - t_1_1 - 2000.000000 u_1_1_2 > -1974.869800
t_2_1 - t_2_2 + 2000.000000 u_2_1_2 > 2.111700
t_2_2 - t_2_1 - 2000.000000 u_2_1_2 > -1984.896200
t_1_1 - t_1_3 + 2000.000000 u_1_1_3 > 3.731500
t_1_3 - t_1_1 - 2000.000000 u_1_1_3 > -1974.869800
t_2_1 - t_2_3 + 2000.000000 u_2_1_3 > 3.293600
t_2_3 - t_2_1 - 2000.000000 u_2_1_3 > -1984.896200
t_1_1 - t_1_4 + 2000.000000 u_1_1_4 > 13.952700
t_1_4 - t_1_1 - 2000.000000 u_1_1_4 > -1974.869800
t_2_1 - t_2_4 + 2000.000000 u_2_1_4 > 8.582400
t_2_4 - t_2_1 - 2000.000000 u_2_1_4 > -1984.896200
t_1_5 - t_1_1 - 2000.000000 s_1_1 > -1972.195062
t_1_5 - t_2_1 - 2000.000000 s_2_1 > -1979.546723
t_2_5 - t_1_1 - 2000.000000 s_1_1 > -1972.195062
t_2_5 - t_2_1 - 2000.000000 s_2_1 > -1979.546723
t_1_2 - t_1_1 + 2000.000000 u_1_2_1 > 25.130200
t_1_1 - t_1_2 - 2000.000000 u_1_2_1 > -1996.805900
t_2_2 - t_2_1 + 2000.000000 u_2_2_1 > 15.103800
t_2_1 - t_2_2 - 2000.000000 u_2_2_1 > -1997.888300
t_1_2 - t_1_3 + 2000.000000 u_1_2_3 > 3.731500
t_1_3 - t_1_2 - 2000.000000 u_1_2_3 > -1996.805900
t_2_2 - t_2_3 + 2000.000000 u_2_2_3 > 3.293600
t_2_3 - t_2_2 - 2000.000000 u_2_2_3 > -1997.888300
t_1_2 - t_1_4 + 2000.000000 u_1_2_4 > 13.952700
t_1_4 - t_1_2 - 2000.000000 u_1_2_4 > -1996.805900
t_2_2 - t_2_4 + 2000.000000 u_2_2_4 > 8.582400
t_2_4 - t_2_2 - 2000.000000 u_2_2_4 > -1997.888300
t_1_5 - t_1_2 - 2000.000000 s_1_2 > -1994.131162
t_1_5 - t_2_2 - 2000.000000 s_2_2 > -1992.538823
t_2_5 - t_1_2 - 2000.000000 s_1_2 > -1994.131162
t_2_5 - t_2_2 - 2000.000000 s_2_2 > -1992.538823
t_1_3 - t_1_1 + 2000.000000 u_1_3_1 > 25.130200
t_1_1 - t_1_3 - 2000.000000 u_1_3_1 > -1996.268500
t_2_3 - t_2_1 + 2000.000000 u_2_3_1 > 15.103800
t_2_1 - t_2_3 - 2000.000000 u_2_3_1 > -1996.706400
t_1_3 - t_1_2 + 2000.000000 u_1_3_2 > 3.194100
t_1_2 - t_1_3 - 2000.000000 u_1_3_2 > -1996.268500
t_2_3 - t_2_2 + 2000.000000 u_2_3_2 > 2.111700
t_2_2 - t_2_3 - 2000.000000 u_2_3_2 > -1996.706400
t_1_3 - t_1_4 + 2000.000000 u_1_3_4 > 13.952700
t_1_4 - t_1_3 - 2000.000000 u_1_3_4 > -1996.268500
t_2_3 - t_2_4 + 2000.000000 u_2_3_4 > 8.582400
t_2_4 - t_2_3 - 2000.000000 u_2_3_4 > -1996.706400
t_1_5 - t_1_3 - 2000.000000 s_1_3 > -1993.593762
t_1_5 - t_2_3 - 2000.000000 s_2_3 > -1991.356923
t_2_5 - t_1_3 - 2000.000000 s_1_3 > -1993.593762
t_2_5 - t_2_3 - 2000.000000 s_2_3 > -1991.356923
t_1_4 - t_1_1 + 2000.000000 u_1_4_1 > 25.130200
t_1_1 - t_1_4 - 2000.000000 u_1_4_1 > -1986.047300
t_2_4 - t_2_1 + 2000.000000 u_2_4_1 > 15.103800
t_2_1 - t_2_4 - 2000.000000 u_2_4_1 > -1991.417600
t_1_4 - t_1_2 + 2000.000000 u_1_4_2 > 3.194100
t_1_2 - t_1_4 - 2000.000000 u_1_4_2 > -1986.047300
t_2_4 - t_2_2 + 2000.000000 u_2_4_2 > 2.111700
t_2_2 - t_2_4 - 2000.000000 u_2_4_2 > -1991.417600
t_1_4 - t_1_3 + 2000.000000 u_1_4_3 > 3.731500
t_1_3 - t_1_4 - 2000.000000 u_1_4_3 > -1986.047300
t_2_4 - t_2_3 + 2000.000000 u_2_4_3 > 3.293600
t_2_3 - t_2_4 - 2000.000000 u_2_4_3 > -1991.417600
t_1_5 - t_1_4 - 2000.000000 s_1_4 > -1983.372562
t_1_5 - t_2_4 - 2000.000000 s_2_4 > -1986.068123
t_2_5 - t_1_4 - 2000.000000 s_1_4 > -1983.372562
t_2_5 - t_2_4 - 2000.000000 s_2_4 > -1986.068123
t_1_5 - t_1_1 - 2000.000000 s_1_1 > -1972.195062
t_1_5 - t_2_1 - 2000.000000 s_2_1 > -1979.546723
t_2_5 - t_1_1 - 2000.000000 s_1_1 > -1972.195062
t_2_5 - t_2_1 - 2000.000000 s_2_1 > -1979.546723
t_1_5 - t_1_2 - 2000.000000 s_1_2 > -1994.131162
t_1_5 - t_2_2 - 2000.000000 s_2_2 > -1992.538823
t_2_5 - t_1_2 - 2000.000000 s_1_2 > -1994.131162
t_2_5 - t_2_2 - 2000.000000 s_2_2 > -1992.538823
t_1_5 - t_1_3 - 2000.000000 s_1_3 > -1993.593762
t_1_5 - t_2_3 - 2000.000000 s_2_3 > -1991.356923
t_2_5 - t_1_3 - 2000.000000 s_1_3 > -1993.593762
t_2_5 - t_2_3 - 2000.000000 s_2_3 > -1991.356923
t_1_5 - t_1_4 - 2000.000000 s_1_4 > -1983.372562
t_1_5 - t_2_4 - 2000.000000 s_2_4 > -1986.068123
t_2_5 - t_1_4 - 2000.000000 s_1_4 > -1983.372562
t_2_5 - t_2_4 - 2000.000000 s_2_4 > -1986.068123
Binary
s_1_1
s_2_1
s_1_2
s_2_2
s_1_3
s_2_3
s_1_4
s_2_4
s_1_5
s_2_5
u_1_1_2
u_2_1_2
u_1_1_3
u_2_1_3
u_1_1_4
u_2_1_4
u_1_2_1
u_2_2_1
u_1_2_3
u_2_2_3
u_1_2_4
u_2_2_4
u_1_3_1
u_2_3_1
u_1_3_2
u_2_3_2
u_1_3_4
u_2_3_4
u_1_4_1
u_2_4_1
u_1_4_2
u_2_4_2
u_1_4_3
u_2_4_3

End
